1	1	1	1	3	5	0	0	0	0	0	0
1400	1	0	0	0	0	0	0	0	0	0	0
175	1	0	77.75	3.47	1	0	0	0	0	0	0
50	150	0	0	0	0	9999	0	0	99999	0	0
50	75	0	0	0	0	9999	0	0	99999	0	0
50	75	0	0	0	0	9999	0	0	0	0	0
10	28	0	0	0	0	9999	0	0	0	0	0
27	10	0	0	0	0	9999	0	0	0	0	0
0	45	20	0	20	1743	2383	90	0	0	0	0
26	32	10	8	2	356	996	90	0	0	0	0
35	5	20	3	17	1253	1893	90	0	0	0	0
38	5	30	4	26	1346	1986	90	0	0	0	0
44	5	20	2	18	1532	2172	90	0	0	0	0

